! DLPNO-CCSD(T) def2-TZVPP def2-TZVPP/C VeryTightSCF
%maxcore 3400

%pal nprocs 8 
end

*xyz 1 1
 C       -1.307520        2.907274       -0.799633
 N       -2.307001        1.812480       -0.930063
 C       -3.072624        1.496990        0.328010
 C       -2.238438        0.686109        1.305256
 C       -1.788535       -0.673569        0.743858
 C       -2.958995       -1.498301        0.249893
 C       -3.126008       -1.826687       -1.089305
 C       -4.240184       -2.548769       -1.499017
 C       -5.190947       -2.950172       -0.576777
 C       -5.020820       -2.637373        0.765072
 C       -3.912569       -1.916659        1.174843
 O       -0.895707       -0.462261       -0.352574
 C        0.415955       -0.118395       -0.133574
 C        1.154031        0.135940       -1.285903
 C        2.475619        0.516657       -1.185117
 C        3.071072        0.643396        0.064824
 C        2.337957        0.375247        1.204730
 C        1.004884       -0.006909        1.116103
 C        4.501440        1.110975        0.155978
 F        5.263988        0.534866       -0.779134
 F        4.581477        2.438766       -0.032260
 F        5.040807        0.844111        1.347795
 H       -0.567084        2.622134       -0.057645
 H       -1.817601        3.817834       -0.496453
 H       -0.816532        3.052132       -1.758153
 H       -1.815086        0.945851       -1.193345
 H       -3.953392        0.934596        0.020120
 H       -3.392232        2.444702        0.758017
 H       -2.857266        0.518441        2.186757
 H       -1.372001        1.255229        1.645884
 H       -1.271057       -1.233239        1.525015
 H       -2.371803       -1.555042       -1.815428
 H       -4.354275       -2.807923       -2.543565
 H       -6.055006       -3.516994       -0.896972
 H       -5.749063       -2.963779        1.495774
 H       -3.784942       -1.695471        2.228812
 H        0.688184        0.003104       -2.254350
 H        3.052228        0.704575       -2.081199
 H        2.801965        0.458397        2.177871
 H        0.462136       -0.219234        2.025454
 H       -2.964213        2.037799       -1.672260
*

