! DLPNO-CCSD(T) def2-TZVPP def2-TZVPP/C VeryTightSCF
%maxcore 3400

%pal nprocs 8 
end

*xyz 1 1
 C       -0.960091        3.589433       -0.126561
 N       -2.000238        3.086348        0.812229
 C       -3.237150        2.528717        0.161233
 C       -3.013390        1.154654       -0.452462
 C       -2.673894        0.076354        0.577841
 C       -2.599105       -1.344943        0.060765
 C       -2.134853       -2.333894        0.923781
 C       -2.060778       -3.650794        0.506334
 C       -2.459747       -3.998591       -0.776756
 C       -2.933519       -3.022443       -1.636391
 C       -3.002160       -1.699830       -1.220339
 O       -1.507545        0.457148        1.340718
 C       -0.228813        0.403757        0.832917
 C        0.748153        0.861210        1.711210
 C        2.067532        0.928904        1.305998
 C        2.419205        0.535308        0.023253
 C        1.446498        0.061587       -0.840921
 C        0.118326       -0.008998       -0.447365
 C        3.845142        0.659848       -0.449045
 F        4.184932       -0.341246       -1.266053
 F        4.021721        1.805670       -1.130100
 F        4.707141        0.668324        0.570974
 H       -0.108139        3.938587        0.450518
 H       -1.379094        4.402552       -0.713813
 H       -0.642215        2.776748       -0.772755
 H       -2.267360        3.835693        1.445389
 H       -3.558990        3.251420       -0.587051
 H       -3.997348        2.480151        0.941293
 H       -2.268234        1.198714       -1.247755
 H       -3.955058        0.885409       -0.931703
 H       -3.449751        0.103892        1.348147
 H       -1.820065       -2.069507        1.925882
 H       -1.693446       -4.409174        1.185042
 H       -2.403522       -5.028719       -1.102690
 H       -3.251102       -3.285914       -2.636648
 H       -3.371210       -0.958082       -1.917135
 H        0.464784        1.136344        2.719587
 H        2.825590        1.277060        1.994149
 H        1.720923       -0.267826       -1.834358
 H       -0.612563       -0.412330       -1.130269
 H       -1.613322        2.317806        1.380188
*

