#opt

crest_conformers

1 1
 C         -1.7346383413        3.1154268500       -0.8767198811
 N         -2.4818295330        1.8472522109       -0.9338881077
 C         -3.2535799980        1.5327447572        0.3021540797
 C         -2.3577068155        0.8307155489        1.3175559444
 C         -1.7838623148       -0.4847652346        0.7436453748
 C         -2.8967467311       -1.3876515962        0.2462928956
 C         -3.1294909244       -1.5982658428       -1.1061649943
 C         -4.1664975405       -2.4205976592       -1.5151108074
 C         -4.9828909763       -3.0298910061       -0.5789451501
 C         -4.7519150167       -2.8260313423        0.7718871160
 C         -3.7129559258       -2.0115609918        1.1833181993
 O         -0.8938413100       -0.1881590836       -0.3380294748
 C          0.4551624172       -0.0034702481       -0.1123397048
 C          1.2338027351        0.0773932800       -1.2657753816
 C          2.5927030253        0.2902607341       -1.1730530611
 C          3.1808413946        0.4245620718        0.0787510543
 C          2.4094892018        0.3465479198        1.2272045122
 C          1.0437949656        0.1359223304        1.1364596229
 C          4.6553900633        0.7100190883        0.1857375751
 F          5.3532965636        0.1887509269       -0.8278197955
 F          4.8888625939        2.0377543931        0.1706413783
 F          5.1875380968        0.2424371547        1.3192635769
 H         -1.0412357068        3.1024556513       -0.0389935763
 H         -2.4190513968        3.9533684721       -0.7549939749
 H         -1.1656689777        3.2562699413       -1.7932026975
 H         -1.7985045380        1.0441860394       -1.0272909238
 H         -4.0767156856        0.8664519715        0.0358514751
 H         -3.6666577288        2.4540265328        0.7166077596
 H         -2.9509063087        0.6015331898        2.2014890515
 H         -1.5395203840        1.4843839170        1.6246778410
 H         -1.2407413012       -1.0180762154        1.5304159583
 H         -2.4803735673       -1.1533846175       -1.8460104957
 H         -4.3306216041       -2.5873680132       -2.5684006044
 H         -5.7887109267       -3.6707937799       -0.8994488809
 H         -5.3756591981       -3.3091995177        1.5071585773
 H         -3.5266487305       -1.8696657784        2.2375424940
 H          0.7628938593       -0.0464737514       -2.2282022470
 H          3.1975033889        0.3431228438       -2.0643446145
 H          2.8721003208        0.4481961433        2.1963191965
 H          0.4702690455        0.0797825348        2.0476213456
 H         -3.1058327639        1.8586180429       -1.7445225998
  





