! wB97X-D3 TightOpt Freq def2-TZVPP def2/J RIJCOSX TightSCF defgrid3 CHELPG
%maxcore 3200

%pal nprocs 8 
end

%chelpg
grid 0.1
rmax 3.0
end


*xyz 1 1
 C    -4.5590378282    2.4302052239    -1.2702106638
 N    -4.1256911402    1.4953897968    -0.2182632260
 C    -3.0813654166    2.0521816983    0.6800800940
 C    -2.5501965372    0.9987575550    1.6453106380
 C    -1.7028479988    -0.0776246306    0.9213376787
 C    -2.5811058556    -1.0078589073    0.1019634581
 C    -3.3174168943    -2.0010550688    0.7370954199
 C    -4.1425067936    -2.8346818577    0.0020074041
 C    -4.2444306739    -2.6844418151    -1.3728396002
 C    -3.5099209741    -1.7032401810    -2.0156693185
 C    -2.6854150821    -0.8589982614    -1.2831667836
 O    -0.7771080693    0.5879598128    0.0835280940
 C    0.5781972708    0.4135735506    0.1987115185
 C    1.2373679101    -0.2359588484    1.2334117681
 C    2.6190589894    -0.3179264102    1.2255491185
 C    3.3472642635    0.2538671240    0.1951452932
 C    2.6936765896    0.9092838005    -0.8416206879
 C    1.3184743689    0.9877424745    -0.8359181640
 C    4.8463346146    0.1362531050    0.1718443340
 F    5.4331272879    1.2151434116    -0.3642342529
 F    5.3696024203    -0.0263358388    1.3933529408
 F    5.2488159890    -0.9190635241    -0.5604163837
 H    -4.9621742150    3.3391739523    -0.8271922434
 H    -5.3252737974    1.9692897912    -1.8897334390
 H    -3.7102372743    2.6936370517    -1.8978952831
 H    -3.7186254056    0.6194743257    -0.6499186933
 H    -3.5001372481    2.8981378859    1.2281640235
 H    -2.2542283078    2.4049725262    0.0602671020
 H    -3.3616445017    0.5180716783    2.1932270199
 H    -1.9113917592    1.5090950110    2.3670033893
 H    -1.1994734826    -0.6768028059    1.6843052876
 H    -3.2264308906    -2.1367882613    1.8044392579
 H    -4.6955511543    -3.6140930620    0.5016977220
 H    -4.8777148140    -3.3455790666    -1.9423501588
 H    -3.5622607869    -1.6001126758    -3.0883865272
 H    -2.0514210375    -0.1449489473    -1.7911365363
 H    0.7095143066    -0.6848046569    2.0597134659
 H    3.1287491849    -0.8229782444    2.0310100291
 H    3.2615821769    1.3554137462    -1.6426787245
 H    0.7958070571    1.4938086202    -1.6317720346
 H    -4.9340594692    1.2106573891    0.3451691250
*

