#opt

Fluoxetine_55

1 1
C            -5.021434         1.978065        -1.452462
N            -4.386760         1.312046        -0.286374
C            -3.423755         2.184523         0.468035
C            -2.769989         1.462492         1.635812
C            -1.675769         0.465503         1.233844
C            -2.227100        -0.660892         0.374510
C            -3.035758        -1.633863         0.957336
C            -3.641163        -2.606790         0.176692
C            -3.441778        -2.621842        -1.197753
C            -2.620763        -1.669941        -1.783147
C            -2.013588        -0.692524        -1.001755
O            -0.701177         1.230805         0.567756
C             0.565535         0.728183         0.412107
C             0.955000        -0.538672         0.819298
C             2.266224        -0.942562         0.610891
C             3.173924        -0.096500         0.001604
C             2.772281         1.169726        -0.406776
C             1.472734         1.583632        -0.201433
C             4.579486        -0.563065        -0.270188
F             5.451905         0.451196        -0.243475
F             4.984796        -1.471643         0.624612
F             4.674856        -1.133581        -1.482613
H            -5.558609         2.859266        -1.111561
H            -5.706125         1.282285        -1.929745
H            -4.240438         2.266371        -2.150963
H            -3.873057         0.477672        -0.600239
H            -3.990146         3.050694         0.806340
H            -2.675657         2.517582        -0.250509
H            -3.520673         0.957792         2.248911
H            -2.313144         2.225197         2.266665
H            -1.260460         0.047156         2.156152
H            -3.186443        -1.639444         2.031565
H            -4.260594        -3.361951         0.642835
H            -3.907817        -3.385897        -1.805644
H            -2.435545        -1.694108        -2.849275
H            -1.355276         0.035272        -1.459815
H             0.263330        -1.225397         1.285574
H             2.575720        -1.928403         0.930258
H             3.481265         1.836770        -0.878123
H             1.148443         2.570949        -0.501565
H            -5.102575         0.972693         0.353547

